NAME : Random_TSP_Instance
TYPE : TSP
DIMENSION : 5
EDGE_WEIGHT_TYPE : EXPLICIT
EDGE_WEIGHT_FORMAT : FULL_MATRIX
NODE_COORD_TYPE : NO_COORDS
DISPLAY_DATA_TYPE: TWOD_DISPLAY
EDGE_WEIGHT_SECTION
870.473522 7.853339 5.474848 870.473522 870.473522
7.853339 870.473522 870.473522 870.473522 1.725083
5.474848 4.761951 870.473522 9.548134 870.473522
870.473522 7.728445 9.548134 870.473522 9.263523
9.459957 1.725083 870.473522 9.263523 870.473522
EOF
